Al Si  O 
 1.0000000000000000
    18.9255114721123050   -0.0008024095534496   -0.0088068734559279
     0.0041275357976906   16.7178603099123357    0.0004975237672427
    -3.6299959072093788    0.0024255034387390    9.7606474282016062
 Al  Si  O  
  31  64 192
Cartesian
 18.4675131053942572  7.5907536483881755  1.2070323899595587
 16.6614740123832483  7.5933616579667209  6.0924952851037419
 18.4750270146683135 15.9552683045033348  1.2099693020333844
 16.6678020319126325 15.9572134408612314  6.0943232518206241
  8.9861758220757757  7.6144934083773776  1.2108926162338010
  7.2220069756284797  7.6146291289237542  6.1035589204606771
  9.0074189952260610 15.9525701982187904  1.2190465227833878
  7.1958330778985271 15.9527565079121896  6.0922217822484388
 -1.3560574853559328  0.7704142434152838  3.6603779924899453
 -3.1736502485803078  0.7708693856604527  8.5399987394949353
 -1.3608782628415204  9.1280507595266478  3.6579083583127283
 -3.1779633188900509  9.1257434208104957  8.5374402302565642
  8.1015834037160079  0.7816165636146029  3.6569284464026071
  6.2835223672868326  0.7549941344436643  8.5353215355829395
  6.2908477250006225  9.1313101217844732  8.5370963444616006
  4.2710109253398532  3.4156972449162590  1.2150459026763600
  2.4593759494861125  3.4173664357349116  6.0979852322705499
  4.2599310672852546 11.7701023141790913  1.2017859378837272
  2.4518432565364452 11.7707583511359974  6.0944130361554212
 13.7443591913444827  3.4133869748145713  1.2147613363284853
 11.9354224248271876  3.4159333094286723  6.0996292912762575
 13.7559545681955395 11.7769345117411159  1.2166581310490197
 11.9423297169509528 11.7746151083364730  6.1079015759659061
  3.3506479106537737  4.9472328924114741  3.6557280705294510
  1.5461465000244539  4.9507258774729053  8.5354197940408785
  3.3528618176721747 13.3156797234895823  3.6480010585055083
  1.5528243639461852 13.3051771980878115  8.5303694591797221
 12.8604833532413920  4.9462320942564979  3.6588500671850523
 11.0290505118843498  4.9500793382942083  8.5399470659884020
 12.8596370532767281 13.3195629775726250  3.6655916586895811
 11.0264822887692127 13.3089434491010916  8.5411456138320787
  2.3205751323249664  0.7802947938216956  1.2644408146515902
  0.5026397514621159  0.7864958352867017  6.1424556114021991
  2.3109467592630999  9.1367222498675655  1.2573012896721603
  0.4939367623065387  9.1435353875523990  6.1362259262649488
 11.7710629674532452  0.7901794933245931  1.2561693994607208
  9.9659702827131351  0.7865696298918216  6.1415880624979167
 11.7982870434609097  9.1494511035626864  1.2552784961838583
  9.9267159681566461  9.1537991245959969  6.1501609774359443
  5.3417311471427960  7.5800798286085191  3.6270764181750659
  3.5005451619497210  7.5871676603839076  8.4921954165009996
  5.3295848017574556 15.9423646481946086  3.6126797791392047
  3.5177240936499112 15.9365063893592076  8.4901860297588723
 14.8077156740710869  7.5739436509761662  3.6098904448691496
 12.9779738073347026  7.5774696753725159  8.4859349346790189
 14.8140540437209030 15.9381244892140117  3.6119675288310176
 12.9856204204747119 15.9390431749776980  8.4921013326869765
  6.2342176689957567  0.7877279510266387  1.1696332778772609
  4.4243636649601488  0.7935069029417671  6.0524216738097083
  6.2815263593708712  9.1559888527494451  1.1617419351694684
  4.4145522315179599  9.1473533792707276  6.0552940878085311
 15.7063883363162873  0.7882074155822895  1.1700958302594653
 13.8873474652533471  0.7832581570774237  6.0463338357381833
 15.7069951256473530  9.1471643752056959  1.1688792843323641
 13.8865138830491759  9.1384154279870398  6.0461001181550014
  1.4003573199879125  7.5715830102571244  3.6982410546568247
 -0.4060216839357199  7.5743226357089020  8.5838691691967721
  1.4090458393103347 15.9362686396969746  3.7039195757987091
 -0.3995364886276597 15.9365217924321438  8.5823602661468712
 10.8767423383689668  7.5797743097215564  3.6857450932094484
  9.0754473167674750  7.5850130763049801  8.5830516907608363
 10.8779978461227316 15.9411355303204587  3.7000109272967245
  9.0585224019550896 15.9345034751703345  8.5822428252633696
  7.0330935417585279  4.9609647863935056  1.2412646261652582
  5.2356648330667115  4.9571535152446122  6.1667494065114008
  7.0435423829049570 13.3208161952092361  1.2410579037474347
  5.2192849782506032 13.3238400852771584  6.1279922979624439
 16.5128416728862817  4.9626128140387937  1.2586591514481345
 14.7105440986814955  4.9594134387063527  6.1411026305891436
 16.5231832382775714 13.3238170381568324  1.2605306942059300
 14.7144447587688738 13.3273998352662950  6.1452413680966345
  0.5989562590660867  3.3973248554236131  3.6162779325732548
 -1.2228819355663341  3.3995690442077486  8.4903694975335711
  0.5930058653465129 11.7576060822037878  3.6124720437416302
 -1.2235684017644797 11.7563584562061010  8.4891889157460696
 10.0631692842775511  3.4170883622696153  3.6228201799473707
  8.2681943537441249  3.3673646385239944  8.4964769902406552
 10.1069431568680805 11.7778699216717051  3.6468987439642722
  8.2564464438179925 11.7626528696335200  8.5030953516636085
  1.4972022430009360  4.9590096375756119  1.1698772814676597
 -0.3086879544020980  4.9677383806681732  6.0524953871943534
  1.4962507206212485 13.3243065256737818  1.1664924151132776
 -0.3115886415695568 13.3257946574209143  6.0518845795642182
 10.9686515263569202  4.9556118650608925  1.1542589704874233
  9.1742053242361123  4.9654238216922959  6.0786745352171279
 10.9885186786119391 13.3314225875403132  1.1870645267338060
  9.1581088681298901 13.3245683070903933  6.0703320295502605
  6.1456670757212555  3.4192766335073799  3.6998176742311073
  4.3035890625600164  3.3661301884680759  8.5823906272423098
  6.0982133860485375 11.7751506607411951  3.6649991740338379
  4.3234231756344528 11.7562123982778282  8.5731003696407058
 15.6094044727326846  3.3929131396571797  3.6969546388566314
 13.7992872830251230  3.3972652625024167  8.5828072527361599
 15.6140366254081453 11.7572770366192501  3.7001420112175620
 13.7991560349861118 11.7581353146569061  8.5809321021915412
  0.7863029262425353  0.6932715597512695  0.6924183695314909
 -1.0328823681624879  0.6963705556760639  5.5748748903070142
  0.7775706935493496  9.0444467815599054  0.6859404421024455
 -1.0408573264165863  9.0535745895007409  5.5682160853315574
 10.2343343919041203  0.6917845765903413  0.6874285353530850
  8.4309762050475978  0.6961653818594903  5.5662744555288146
 10.2709868582090547  9.0505450682558859  0.6830210146571929
  8.3639525015150564  9.0726190412922119  5.8014497220699557
  6.7762112490003323  7.4094970296193665  4.3274389513933595
  5.0443380299501612  7.6810464856764789  9.0334742084697233
  6.8674682725583702 16.0352050106999506  4.1811786428650946
  5.0542345288129189 16.0136846580502166  9.0643652063830071
 16.3395868777312288  7.6703937411390815  4.1819636484303411
 14.5143757831034890  7.6699810671450805  9.0541918254828353
 16.3461756755886398 16.0315005288353412  4.1828335979123352
 14.5207308595468767 16.0339122480407639  9.0603090302009708
  7.7689516994025123  0.6964551451428801  1.7465285818945295
  5.9614858578349983  0.6912387895800116  6.6222384923954296
  7.8440394852622743  9.0712428417828317  1.5116099464394832
  5.9402162199005897  9.0511943746833818  6.6304265833590215
 17.2426386651720343  0.6951424170896642  1.7377805126406398
 15.4218917345551692  0.6935710286580589  6.6191179222938414
 17.2418659530941127  9.0518412100716059  1.7389213592895076
 15.4202720947441687  9.0456765814650097  6.6201486992527814
 -0.1324039810673945  7.6707638588523794  3.1255188879420910
 -1.9426230210806614  7.6709582742735725  8.0145144288446648
 -0.1235429860241748 16.0328612925086489  3.1305306917583113
 -1.9344809227091309 16.0345944989205371  8.0133759428087856
  9.4405521576435358  7.4096736809545671  2.9859123284391376
  7.5316286989856698  7.6820618617760088  8.0434650327213575
  9.3395468780700153 16.0347532435894848  3.1313351224300576
  7.5217950841924699 16.0132230829110576  8.0070948056367648
  5.4939544464104513  4.8608009996432582  0.6798875238060170
  3.7056935908209971  4.8855364275910418  5.5718649169179262
  5.5054097473734132 13.2326765167580689  0.6788609457142464
  3.6842480655497982 13.2346460748997021  5.5619567330258990
 14.9772793377824396  4.8664309588268493  0.6914889708186016
 13.1791470180020056  4.8600693528503909  5.5726177343213594
 14.9880569588383725 13.2346416917087701  0.6912643486966350
 13.1793218684694118 13.2479333215162196  5.5815846767613415
  2.1360935811126023  3.4913949157534985  4.1867001938925403
  0.3095236907158704  3.4843548688013897  9.0623149400418033
  2.1261720991958013 11.8499939022530523  4.1814395900675780
  0.3114268221993395 11.8487068093011594  9.0592988874367393
 11.6026568232352254  3.5020365698173372  4.1843368939809693
  9.8007931969748956  3.4796430547741286  9.0663481436799227
 11.6391721360570557 11.8933169260442284  4.2078141231210608
  9.7969948881370019 11.8606730412609771  9.0666770354282260
  3.0284243152907044  4.8583079981233270  1.7402202782797624
  1.2267129103968755  4.8697003201529867  6.6210922718249554
  3.0303192106157084 13.2449330975908097  1.7303299561949588
  1.2226758672128142 13.2306924748739032  6.6211319120402052
 12.5003241930125988  4.8822310316051167  1.7451416681749954
 10.7138544317666931  4.8613047514056387  6.6367612655570030
 12.5247919299386936 13.2409258211113929  1.7513569550822505
 10.6977708712740576 13.2364619077477386  6.6313070042132241
  4.6074937876157334  3.5039473454621000  3.1322631254693345
  2.7727425081158481  3.4813080388864441  8.0084608751855004
  4.5658926845581602 11.8896120303656136  3.1043141701129762
  2.7831094934168399 11.8558474474695554  8.0060187914308543
 14.0720248280130242  3.4873965965779465  3.1262019019950071
 12.2662902986555906  3.4820542492698521  8.0119406147165169
 14.0814067478841984 11.8549426746732696  3.1298563536431789
 12.2651441492643798 11.8539837219200468  8.0098079238604409
  2.9183564492265379  2.2325151720152094  1.4718433210802404
  1.0978006801208806  2.2410505744109614  6.3344068468087205
  2.8977073623296108 10.5967361652231844  1.4497719747822857
  1.0867120858171893 10.5997774517160241  6.3317783290231260
 12.3727061705740393  2.2440346835671607  1.4507896651690209
 10.5705323381368839  2.2373450160146562  6.3393720773627136
 12.3967815277246771 10.6060067080068610  1.4630051805300675
 10.5822304297035910 10.5955443638429063  6.3431746011707784
  4.6421362655972152  6.1678443220825114  3.3586233513894190
  2.9090487537823622  6.1236934864923631  8.2851920972264939
  4.7204170185749028 14.4935150235024288  3.4140452295442647
  2.9111293685094473 14.4876464521266435  8.2845727252861430
 14.2348578987059078  6.1087757400153757  3.4123383840973402
 12.3949313810144055  6.1163842635776122  8.3091517753560300
 14.2245307280246145 14.4812795517574706  3.4183390322290688
 12.3903402387596806 14.4842072186474642  8.2990602905587423
  5.6338709822861484  2.2391691340512034  0.9715745416798580
  3.8298073210737962  2.2491856104615344  5.8581885370929188
  5.6242440623744878 10.5964176393259137  0.9733799089276597
  3.8132541228705388 10.6029932194214602  5.8492177721033611
 15.1086657514048568  2.2408917397497041  0.9779073183054522
 13.2897595610864094  2.2354583957776417  5.8431704707435825
 15.1187851926950199 10.6044976510705879  0.9764569566058244
 13.3015076916056429 10.5983350318924980  5.8538214559014516
  1.9749906096982870  6.1083033057570093  3.8972181343176269
  0.1774261492440757  6.1143432074917126  8.7664370332636530
  1.9908899052438831 14.4776001485121881  3.8998334597964677
  0.1895515671091015 14.4799582040761319  8.7744671645312042
 11.5704397600951570  6.1668212076214681  3.9566742290959227
  9.6636624784141301  6.1205165001311368  8.7908862194015640
 11.4886899425554407 14.4932538472307098  3.8973133333653305
  9.6655508027883439 14.4864328561869566  8.7858445750740195
  7.6141667229245522  6.4209161363240819  1.3738143629018182
  5.8461859087347676  6.3955973550868572  6.4586528863406008
  7.6428861921149265 14.7754795568834822  1.4574327342901612
  5.8262863920711139 14.7784098359614280  6.3175817956451548
 17.1058934387391446  6.4178799406374294  1.4588207490846057
 15.3054206891884625  6.4137122435963363  6.3375263930389112
 17.1132335757247240 14.7812334407094248  1.4586946798927298
 15.3123085690855856 14.7805609100418938  6.3451969805205888
  0.0090687676803853  1.9396885783459545  3.4231752809089788
 -1.8140505779448817  1.9436423002866412  8.2884738906243456
 -0.0002565779994286 10.3025285964892177  3.4113628968920331
 -1.8174064289656064 10.3016941890331122  8.2887816481091292
  9.4626165894850995  1.9631010258662491  3.4085115197028073
  7.6635781900023492  1.9142188610333384  8.2973026191678869
  9.5952536719348664 10.2819535932183292  3.4541008652470699
  7.6708109013041428 10.3010998943457075  8.3640798876230562
  0.9015089267193580  6.4134055255848459  0.9714788979905864
 -0.9001224640872698  6.4230704318519765  5.8522534461156424
  0.9035977366040335 14.7795468144970314  0.9658393266689200
 -0.8955913228284976 14.7851774723800027  5.8559798642936212
 10.3619487876015857  6.3946045881631379  0.8560288639764203
  8.5969065351092997  6.4259148121930068  5.9445361380482433
 10.3795380442474734 14.7834843890991880  0.9932617353953833
  8.5610868907112376 14.7786914049901661  5.8522366534870880
  6.7436106630269315  1.9639644637773719  3.9086887548664837
  4.9043960582128907  1.9117843979461846  8.7736244821839939
  6.6112963209303484 10.2792934650106229  3.8572790267478703
  4.9098317651910923 10.2965599361697837  8.7125991284583275
 16.2011679922205758  1.9363833453194677  3.8907718273590097
 14.3921311155269436  1.9420879040252681  8.7829357842547857
 16.2030461472458001 10.3005188237848682  3.8978198167775169
 14.3881761042966723 10.3012935351756116  8.7775815936517123
  3.2595629655994296  8.2126099679122841  0.3182183604954201
  1.4328091931724474  8.2228331255280853  5.1854207325588746
  3.2640043228095337 16.5782007424400035  0.3134262280695870
  1.4454706953135350 16.5801131799052754  5.1952152925194701
 12.7483434032272243  8.2147011414528759  0.3265787634866154
 10.8259051121207293  8.2218213418333850  5.1721721525351789
 12.7139533315934621 16.5800156863955195  0.3121910922109605
 10.9077742033440579 16.5829480836083576  5.1919791344103343
  4.3923916521408701  0.1561030749706410  4.5581663634783043
  2.5775335946992795  0.1404165690699934  9.4419167295090531
  4.3863149818070735  8.5238278517734276  4.5495715449922285
  2.5237106770978111  8.5053680543200585  9.4134343462011429
 13.8600699017133735  0.1351100896695412  4.5568904349224653
 12.0417805067118735  0.1473993832460418  9.4377106717284605
 13.8599134119569722  8.4887643487315767  4.5582658084438350
 12.0513974482250639  8.5042103581333102  9.4406207317967006
  5.3856787893736984  8.2184287922391270  2.1381406374539926
  3.4626251822058398  8.2140253554161706  6.9847030167447608
  5.3005945672920562 16.5851329284163391  2.1209514465490154
  3.4909818645418333 16.5854251753682931  7.0000527899263911
 14.7723464601996248  8.2238886099081956  2.1218002385254260
 12.9423224131413850  8.2119362266170057  6.9879196378545538
 14.7734477076386668 16.5792337466408135  2.1183452011405839
 12.9520533497321910 16.5804594818359519  6.9982576497925777
  2.3515249163526479  0.1300748567173373  2.7531591204590562
  0.5364876892236943  0.1442061385991314  7.6355769729406280
  2.3444222330447411  8.4888333891053094  2.7475644087615234
  0.5213181238303050  8.4972605449778769  7.6255021838821806
 11.8059572948407165  0.1548669457676174  2.7521474006088011
  9.9923748331216498  0.1391105805784095  7.6314236040181136
 11.8282453297935124  8.5240959451425873  2.7607026282817690
 10.0533532077271595  8.4972826583253873  7.6568224417606263
  7.9682784455866758  4.0037218279739459  0.3144574918866555
  6.1802666429933479  4.0799123937565369  5.1838945590927974
  7.9911942361454313 12.4136870123500174  0.2939557109865827
  6.1635715597125298 12.4209664264135053  5.1601570418176212
 17.4563246619782646  4.0431801309629520  0.3109463991387529
 15.6455840975627467  4.0341359526187199  5.1892460595079060
 17.4613748623802536 12.4040863628901992  0.3092482950530948
 15.6468468341625844 12.4041581520754516  5.1906441774608698
 -0.3426365616306428  4.3170705491112695  4.5635727151601237
 -2.1661411393881798  4.3131871785128890  9.4418478850400689
 -0.3468593476819631 12.6795497377801514  4.5618251718674401
 -2.1636297744189030 12.6759135600066664  9.4396736199073761
  9.1329081612785785  4.3350579629742212  4.5810533150941888
  7.3108698187587544  4.2550114821589879  9.4537823481931653
  9.1283989444757534 12.6766849342824734  4.5765607149959902
  7.3212967414171848 12.6966778484550691  9.4533163300102565
  0.5613079397708114  4.0352274378093957  2.1223898145319198
 -1.2513062032763467  4.0478196978196177  7.0009482128791030
  0.5606666892245576 12.4057369658127019  2.1219519458415124
 -1.2537420655084868 12.4076967733917289  7.0012407208907312
 10.0246506894794170  4.0811654364505054  2.1388009570286752
  8.2357170801854291  4.0124022148889882  7.0058831001284725
 10.0436662214486940 12.4270254719412296  2.1531245835886321
  8.2128938575779280 12.4187343029796473  7.0199969327429184
  7.0755817567099939  4.3357409414207346  2.7402692817502250
  5.2620620029795919  4.2579807931914830  7.6294670600359149
  7.0748690221248420 12.6760369136640350  2.7359007862717686
  5.2587102183878631 12.6904895230315020  7.6231144812247598
 16.5494612450903666  4.3127752877473089  2.7479941648351969
 14.7415269732661312  4.3135796597673970  7.6316263439291756
 16.5564648194031285 12.6766109884569591  2.7503385116680947
 14.7425048300937860 12.6770325064632825  7.6330998760710909
